set IJ :=
1 1
1 6
2 1
2 6
3 1
3 2
3 6
4 3
4 4;

set OJ :=
1 3
2 3
2 4
3 3
3 4
4 5
4 6;

set PS :=
1 1
2 1 
2 2
3 1
3 2
3 3
3 4
4 1
4 2;

set JM :=
1 1 3
2 1 3
2 2 4
3 1 3
3 2 4
3 3 3
3 4 4
4 1 5
4 2 5;

set L :=
1 1 1 
1 1 6
2 1 1 
2 2 1
2 2 6
3 1 1
3 2 1
3 3 2
3 4 2
4 1 6
4 2 6;

set Lbar :=
4 1 3
4 2 4;

set RJ :=
1 2
1 4
1 6
2 1
2 4
2 6
3 1
3 2
3 6
4 1
4 2
4 4
4 6;

param betaC :=
1 0.1
2 0.09
3 0.11
4 0.08;

param alphaC :=
1 20
2 10
3 15
4 30;

param phi :=
1 3 5.5
2 3 5.5
3 3 5.5
4 3 5.5
1 5 55
2 5 55
3 5 55
4 5 55;

param delta :=
4 1 3
4 2 3
4 3 3
4 4 3;

param mu :=
1 1 1 1.05
1 1 3 -1
1 1 6 0.03
2 1 1 1.02
2 1 3 -1
2 2 1 1.1
2 2 4 -1
2 2 6 0.09
3 1 1 1.1
3 1 3 -1
3 2 1 1.2
3 2 4 -1
3 3 2 1.08
3 3 3 -1
3 4 2 1.05
3 4 4 -1
4 1 3 1.2
4 1 5 -1
4 1 6 1
4 2 4 1.1
4 2 5 -1
4 2 6 0.85;

param betaS :=
1 2 0.5
1 4 2
1 6 0.25
2 1 0.65 
2 4 1.8
2 6 0.3
3 1 0.9
3 2 1 
3 6 0.25
4 1 0.75
4 2 0.75
4 4 1.9
4 6 0.3;

param alphaRP :=
1 1 20
1 2 10
1 3 15
2 1 25
2 2 30
2 3 20
3 1 30
3 2 15
3 3 20
4 1 15
4 2 20
4 3 25;

param betaRP :=
1 1 0.15
1 2 0.1
1 3 0.15
2 1 0.12
2 2 0.2
2 3 0.05
3 1 0.08
3 2 0.15
3 3 0.1
4 1 0.13
4 2 0.08 
4 3 0.2;

param alphaPC :=
1 1 20
1 2 15
1 3 25
1 4 10
2 1 15
2 2 25
2 3 30
2 4 35
3 1 10
3 2 15
3 3 20
3 4 40;

param betaPC :=
1 1 0.03
1 2 0.1
1 3 0.15
1 4 0.05
2 1 0.2
2 2 0.15
2 3 0.05
2 4 0.2
3 1 0.25
3 2 0.1
3 3 0.15
3 4 0.3;























